33D32945 STP File, STP Format Version 1.0

SECTION Comments
Name "edge_n12_d3_s6"
Problem "Euclidean Steiner Tree Problem"
Remark "Generated with STPGenerator. 3 dimensions."
END

SECTION Graph
Nodes 12
END

SECTION Coordinates
DDD 0 0.1354387687 0.1354387687 0.1354387687
DDD 1 0.9625167521 0.9625167521 0.9625167521
DDD 2 0.7997272130 0.7997272130 0.7997272130
DDD 3 0.4030091993 0.4030091993 0.4030091993
DDD 4 0.0851281491 0.0851281491 0.0851281491
DDD 5 0.8056346727 0.8056346727 0.8056346727
DDD 6 0.6451566176 0.6451566176 0.6451566176
DDD 7 0.2473998085 0.2473998085 0.2473998085
DDD 8 0.3098868776 0.3098868776 0.3098868776
DDD 9 0.9831179767 0.9831179767 0.9831179767
DDD 10 0.5296626759 0.5296626759 0.5296626759
DDD 11 0.9438327159 0.9438327159 0.9438327159
END
